\ SCIP STATISTICS
\   Problem name     : UCP
\   Variables        : 244 (0 binary, 4 integer, 0 implicit integer, 240 continuous)
\   Constraints      : 268
\   Obj. scale       : 1
\   Obj. offset      : 0
Minimize
 Obj: +20.991 p(0,4) +20.991 p(0,5) +20.991 p(0,6) +20.991 p(0,7) +20.991 p(0,8) +20.991 p(0,9) +20.991 p(0,10)
      +20.991 p(0,11) +20.991 p(0,12) +20.991 p(0,13) +20.991 p(0,14) +20.991 p(0,15) +20.991 p(0,16)
      +20.991 p(0,17) +20.991 p(0,18) +20.991 p(0,19) +20.991 p(0,20) +20.991 p(0,21) +20.991 p(0,22)
      +20.991 p(0,23) +40.65 p(1,0) +40.65 p(1,1) +40.65 p(1,2) +40.65 p(1,3) +40.65 p(1,4) +40.65 p(1,5)
      +40.65 p(1,6) +40.65 p(1,7) +40.65 p(1,8) +40.65 p(1,9) +40.65 p(1,10) +40.65 p(1,11) +40.65 p(1,12)
      +40.65 p(1,13) +40.65 p(1,14) +40.65 p(1,15) +40.65 p(1,16) +40.65 p(1,17) +40.65 p(1,18) +40.65 p(1,19)
      +40.65 p(1,20) +40.65 p(1,21) +40.65 p(1,22) +40.65 p(1,23) +40.65 p(2,0) +40.65 p(2,1) +40.65 p(2,2)
      +40.65 p(2,3) +40.65 p(2,4) +40.65 p(2,5) +40.65 p(2,6) +40.65 p(2,7) +40.65 p(2,8) +40.65 p(2,9)
      +40.65 p(2,10) +40.65 p(2,11) +40.65 p(2,12) +40.65 p(2,13) +40.65 p(2,14) +40.65 p(2,15) +40.65 p(2,16)
      +40.65 p(2,17) +40.65 p(2,18) +40.65 p(2,19) +40.65 p(2,20) +40.65 p(2,21) +40.65 p(2,22) +40.65 p(2,23)
      +40.65 p(3,0) +40.65 p(3,1) +40.65 p(3,2) +40.65 p(3,3) +40.65 p(3,4) +40.65 p(3,5) +40.65 p(3,6)
      +40.65 p(3,7) +40.65 p(3,8) +40.65 p(3,9) +40.65 p(3,10) +40.65 p(3,11) +40.65 p(3,12) +40.65 p(3,13)
      +40.65 p(3,14) +40.65 p(3,15) +40.65 p(3,16) +40.65 p(3,17) +40.65 p(3,18) +40.65 p(3,19) +40.65 p(3,20)
      +40.65 p(3,21) +40.65 p(3,22) +40.65 p(3,23) +35.3518 p(4,0) +35.3518 p(4,1) +35.3518 p(4,2) +35.3518 p(4,3)
      +35.3518 p(4,4) +35.3518 p(4,5) +35.3518 p(4,6) +35.3518 p(4,7) +35.3518 p(4,8) +35.3518 p(4,9)
      +35.3518 p(4,10) +35.3518 p(4,11) +35.3518 p(4,12) +35.3518 p(4,13) +35.3518 p(4,14) +35.3518 p(4,15)
      +35.3518 p(4,16) +35.3518 p(4,17) +35.3518 p(4,18) +35.3518 p(4,19) +35.3518 p(4,20) +35.3518 p(4,21)
      +35.3518 p(4,22) +35.3518 p(4,23) +35.3518 p(5,0) +35.3518 p(5,1) +35.3518 p(5,2) +35.3518 p(5,3)
      +35.3518 p(5,4) +35.3518 p(5,5) +35.3518 p(5,6) +35.3518 p(5,7) +35.3518 p(5,8) +35.3518 p(5,9)
      +35.3518 p(5,10) +35.3518 p(5,11) +35.3518 p(5,12) +35.3518 p(5,13) +35.3518 p(5,14) +35.3518 p(5,15)
      +35.3518 p(5,16) +35.3518 p(5,17) +35.3518 p(5,18) +35.3518 p(5,19) +35.3518 p(5,20) +35.3518 p(5,21)
      +35.3518 p(5,22) +35.3518 p(5,23) +35.3518 p(6,0) +35.3518 p(6,1) +35.3518 p(6,2) +35.3518 p(6,3)
      +35.3518 p(6,4) +35.3518 p(6,5) +35.3518 p(6,6) +35.3518 p(6,7) +35.3518 p(6,8) +35.3518 p(6,9)
      +35.3518 p(6,10) +35.3518 p(6,11) +35.3518 p(6,12) +35.3518 p(6,13) +35.3518 p(6,14) +35.3518 p(6,15)
      +35.3518 p(6,16) +35.3518 p(6,17) +35.3518 p(6,18) +35.3518 p(6,19) +35.3518 p(6,20) +35.3518 p(6,21)
      +35.3518 p(6,22) +35.3518 p(6,23) +38.1498 p(7,0) +38.1498 p(7,1) +38.1498 p(7,2) +38.1498 p(7,3)
      +38.1498 p(7,4) +38.1498 p(7,5) +38.1498 p(7,6) +38.1498 p(7,7) +38.1498 p(7,8) +38.1498 p(7,9)
      +38.1498 p(7,10) +38.1498 p(7,11) +38.1498 p(7,12) +38.1498 p(7,13) +38.1498 p(7,14) +38.1498 p(7,15)
      +38.1498 p(7,16) +38.1498 p(7,17) +38.1498 p(7,18) +38.1498 p(7,19) +38.1498 p(7,20) +38.1498 p(7,21)
      +38.1498 p(7,22) +38.1498 p(7,23) +38.1498 p(8,0) +38.1498 p(8,1) +38.1498 p(8,2) +38.1498 p(8,3)
      +38.1498 p(8,4) +38.1498 p(8,5) +38.1498 p(8,6) +38.1498 p(8,7) +38.1498 p(8,8) +38.1498 p(8,9)
      +38.1498 p(8,10) +38.1498 p(8,11) +38.1498 p(8,12) +38.1498 p(8,13) +38.1498 p(8,14) +38.1498 p(8,15)
      +38.1498 p(8,16) +38.1498 p(8,17) +38.1498 p(8,18) +38.1498 p(8,19) +38.1498 p(8,20) +38.1498 p(8,21)
      +38.1498 p(8,22) +38.1498 p(8,23) +38.1498 p(9,0) +38.1498 p(9,1) +38.1498 p(9,2) +38.1498 p(9,3)
      +38.1498 p(9,4) +38.1498 p(9,5) +38.1498 p(9,6) +38.1498 p(9,7) +38.1498 p(9,8) +38.1498 p(9,9)
      +38.1498 p(9,10) +38.1498 p(9,11) +38.1498 p(9,12) +38.1498 p(9,13) +38.1498 p(9,14) +38.1498 p(9,15)
      +38.1498 p(9,16) +38.1498 p(9,17) +38.1498 p(9,18) +38.1498 p(9,19) +38.1498 p(9,20) +38.1498 p(9,21)
      +38.1498 p(9,22) +38.1498 p(9,23) +20.991 p(0,0) +20.991 p(0,1) +20.991 p(0,2) +20.991 p(0,3)
Subject to
 Demand(0): +1 p(0,0) +1 p(1,0) +1 p(2,0) +1 p(3,0) +1 p(4,0) +1 p(5,0) +1 p(6,0) +1 p(7,0) +1 p(8,0)
  +1 p(9,0) +40 all_up_(site_0) +28 all_up_(site_1) +28 all_up_(site_1) +28 all_up_(site_1) +21 all_up_(site_2)
  +21 all_up_(site_2) +21 all_up_(site_2) +21 all_up_(site_3) +21 all_up_(site_3) +21 all_up_(site_3)
  >= +159
 Demand(1): +1 p(0,1) +1 p(1,1) +1 p(2,1) +1 p(3,1) +1 p(4,1) +1 p(5,1) +1 p(6,1) +1 p(7,1) +1 p(8,1)
  +1 p(9,1) +40 all_up_(site_0) +28 all_up_(site_1) +28 all_up_(site_1) +28 all_up_(site_1) +21 all_up_(site_2)
  +21 all_up_(site_2) +21 all_up_(site_2) +21 all_up_(site_3) +21 all_up_(site_3) +21 all_up_(site_3)
  >= +200
 Demand(2): +1 p(0,2) +1 p(1,2) +1 p(2,2) +1 p(3,2) +1 p(4,2) +1 p(5,2) +1 p(6,2) +1 p(7,2) +1 p(8,2)
  +1 p(9,2) +40 all_up_(site_0) +28 all_up_(site_1) +28 all_up_(site_1) +28 all_up_(site_1) +21 all_up_(site_2)
  +21 all_up_(site_2) +21 all_up_(site_2) +21 all_up_(site_3) +21 all_up_(site_3) +21 all_up_(site_3)
  >= +250
 Demand(3): +1 p(0,3) +1 p(1,3) +1 p(2,3) +1 p(3,3) +1 p(4,3) +1 p(5,3) +1 p(6,3) +1 p(7,3) +1 p(8,3)
  +1 p(9,3) +40 all_up_(site_0) +28 all_up_(site_1) +28 all_up_(site_1) +28 all_up_(site_1) +21 all_up_(site_2)
  +21 all_up_(site_2) +21 all_up_(site_2) +21 all_up_(site_3) +21 all_up_(site_3) +21 all_up_(site_3)
  >= +273
 Demand(4): +1 p(0,4) +1 p(1,4) +1 p(2,4) +1 p(3,4) +1 p(4,4) +1 p(5,4) +1 p(6,4) +1 p(7,4) +1 p(8,4)
  +1 p(9,4) +40 all_up_(site_0) +28 all_up_(site_1) +28 all_up_(site_1) +28 all_up_(site_1) +21 all_up_(site_2)
  +21 all_up_(site_2) +21 all_up_(site_2) +21 all_up_(site_3) +21 all_up_(site_3) +21 all_up_(site_3)
  >= +330
 Demand(5): +1 p(0,5) +1 p(1,5) +1 p(2,5) +1 p(3,5) +1 p(4,5) +1 p(5,5) +1 p(6,5) +1 p(7,5) +1 p(8,5)
  +1 p(9,5) +40 all_up_(site_0) +28 all_up_(site_1) +28 all_up_(site_1) +28 all_up_(site_1) +21 all_up_(site_2)
  +21 all_up_(site_2) +21 all_up_(site_2) +21 all_up_(site_3) +21 all_up_(site_3) +21 all_up_(site_3)
  >= +368
 Demand(6): +1 p(0,6) +1 p(1,6) +1 p(2,6) +1 p(3,6) +1 p(4,6) +1 p(5,6) +1 p(6,6) +1 p(7,6) +1 p(8,6)
  +1 p(9,6) +40 all_up_(site_0) +28 all_up_(site_1) +28 all_up_(site_1) +28 all_up_(site_1) +21 all_up_(site_2)
  +21 all_up_(site_2) +21 all_up_(site_2) +21 all_up_(site_3) +21 all_up_(site_3) +21 all_up_(site_3)
  >= +403
 Demand(7): +1 p(0,7) +1 p(1,7) +1 p(2,7) +1 p(3,7) +1 p(4,7) +1 p(5,7) +1 p(6,7) +1 p(7,7) +1 p(8,7)
  +1 p(9,7) +40 all_up_(site_0) +28 all_up_(site_1) +28 all_up_(site_1) +28 all_up_(site_1) +21 all_up_(site_2)
  +21 all_up_(site_2) +21 all_up_(site_2) +21 all_up_(site_3) +21 all_up_(site_3) +21 all_up_(site_3)
  >= +438
 Demand(8): +1 p(0,8) +1 p(1,8) +1 p(2,8) +1 p(3,8) +1 p(4,8) +1 p(5,8) +1 p(6,8) +1 p(7,8) +1 p(8,8)
  +1 p(9,8) +40 all_up_(site_0) +28 all_up_(site_1) +28 all_up_(site_1) +28 all_up_(site_1) +21 all_up_(site_2)
  +21 all_up_(site_2) +21 all_up_(site_2) +21 all_up_(site_3) +21 all_up_(site_3) +21 all_up_(site_3)
  >= +486
 Demand(9): +1 p(0,9) +1 p(1,9) +1 p(2,9) +1 p(3,9) +1 p(4,9) +1 p(5,9) +1 p(6,9) +1 p(7,9) +1 p(8,9)
  +1 p(9,9) +40 all_up_(site_0) +28 all_up_(site_1) +28 all_up_(site_1) +28 all_up_(site_1) +21 all_up_(site_2)
  +21 all_up_(site_2) +21 all_up_(site_2) +21 all_up_(site_3) +21 all_up_(site_3) +21 all_up_(site_3)
  >= +508
 Demand(10): +1 p(0,10) +1 p(1,10) +1 p(2,10) +1 p(3,10) +1 p(4,10) +1 p(5,10) +1 p(6,10) +1 p(7,10) +1 p(8,10)
  +1 p(9,10) +40 all_up_(site_0) +28 all_up_(site_1) +28 all_up_(site_1) +28 all_up_(site_1) +21 all_up_(site_2)
  +21 all_up_(site_2) +21 all_up_(site_2) +21 all_up_(site_3) +21 all_up_(site_3) +21 all_up_(site_3)
  >= +560
 Demand(11): +1 p(0,11) +1 p(1,11) +1 p(2,11) +1 p(3,11) +1 p(4,11) +1 p(5,11) +1 p(6,11) +1 p(7,11) +1 p(8,11)
  +1 p(9,11) +40 all_up_(site_0) +28 all_up_(site_1) +28 all_up_(site_1) +28 all_up_(site_1) +21 all_up_(site_2)
  +21 all_up_(site_2) +21 all_up_(site_2) +21 all_up_(site_3) +21 all_up_(site_3) +21 all_up_(site_3)
  >= +587
 Demand(12): +1 p(0,12) +1 p(1,12) +1 p(2,12) +1 p(3,12) +1 p(4,12) +1 p(5,12) +1 p(6,12) +1 p(7,12) +1 p(8,12)
  +1 p(9,12) +40 all_up_(site_0) +28 all_up_(site_1) +28 all_up_(site_1) +28 all_up_(site_1) +21 all_up_(site_2)
  +21 all_up_(site_2) +21 all_up_(site_2) +21 all_up_(site_3) +21 all_up_(site_3) +21 all_up_(site_3)
  >= +623
 Demand(13): +1 p(0,13) +1 p(1,13) +1 p(2,13) +1 p(3,13) +1 p(4,13) +1 p(5,13) +1 p(6,13) +1 p(7,13) +1 p(8,13)
  +1 p(9,13) +40 all_up_(site_0) +28 all_up_(site_1) +28 all_up_(site_1) +28 all_up_(site_1) +21 all_up_(site_2)
  +21 all_up_(site_2) +21 all_up_(site_2) +21 all_up_(site_3) +21 all_up_(site_3) +21 all_up_(site_3)
  >= +565
 Demand(14): +1 p(0,14) +1 p(1,14) +1 p(2,14) +1 p(3,14) +1 p(4,14) +1 p(5,14) +1 p(6,14) +1 p(7,14) +1 p(8,14)
  +1 p(9,14) +40 all_up_(site_0) +28 all_up_(site_1) +28 all_up_(site_1) +28 all_up_(site_1) +21 all_up_(site_2)
  +21 all_up_(site_2) +21 all_up_(site_2) +21 all_up_(site_3) +21 all_up_(site_3) +21 all_up_(site_3)
  >= +533
 Demand(15): +1 p(0,15) +1 p(1,15) +1 p(2,15) +1 p(3,15) +1 p(4,15) +1 p(5,15) +1 p(6,15) +1 p(7,15) +1 p(8,15)
  +1 p(9,15) +40 all_up_(site_0) +28 all_up_(site_1) +28 all_up_(site_1) +28 all_up_(site_1) +21 all_up_(site_2)
  +21 all_up_(site_2) +21 all_up_(site_2) +21 all_up_(site_3) +21 all_up_(site_3) +21 all_up_(site_3)
  >= +472
 Demand(16): +1 p(0,16) +1 p(1,16) +1 p(2,16) +1 p(3,16) +1 p(4,16) +1 p(5,16) +1 p(6,16) +1 p(7,16) +1 p(8,16)
  +1 p(9,16) +40 all_up_(site_0) +28 all_up_(site_1) +28 all_up_(site_1) +28 all_up_(site_1) +21 all_up_(site_2)
  +21 all_up_(site_2) +21 all_up_(site_2) +21 all_up_(site_3) +21 all_up_(site_3) +21 all_up_(site_3)
  >= +433
 Demand(17): +1 p(0,17) +1 p(1,17) +1 p(2,17) +1 p(3,17) +1 p(4,17) +1 p(5,17) +1 p(6,17) +1 p(7,17) +1 p(8,17)
  +1 p(9,17) +40 all_up_(site_0) +28 all_up_(site_1) +28 all_up_(site_1) +28 all_up_(site_1) +21 all_up_(site_2)
  +21 all_up_(site_2) +21 all_up_(site_2) +21 all_up_(site_3) +21 all_up_(site_3) +21 all_up_(site_3)
  >= +367
 Demand(18): +1 p(0,18) +1 p(1,18) +1 p(2,18) +1 p(3,18) +1 p(4,18) +1 p(5,18) +1 p(6,18) +1 p(7,18) +1 p(8,18)
  +1 p(9,18) +40 all_up_(site_0) +28 all_up_(site_1) +28 all_up_(site_1) +28 all_up_(site_1) +21 all_up_(site_2)
  +21 all_up_(site_2) +21 all_up_(site_2) +21 all_up_(site_3) +21 all_up_(site_3) +21 all_up_(site_3)
  >= +436
 Demand(19): +1 p(0,19) +1 p(1,19) +1 p(2,19) +1 p(3,19) +1 p(4,19) +1 p(5,19) +1 p(6,19) +1 p(7,19) +1 p(8,19)
  +1 p(9,19) +40 all_up_(site_0) +28 all_up_(site_1) +28 all_up_(site_1) +28 all_up_(site_1) +21 all_up_(site_2)
  +21 all_up_(site_2) +21 all_up_(site_2) +21 all_up_(site_3) +21 all_up_(site_3) +21 all_up_(site_3)
  >= +519
 Demand(20): +1 p(0,20) +1 p(1,20) +1 p(2,20) +1 p(3,20) +1 p(4,20) +1 p(5,20) +1 p(6,20) +1 p(7,20) +1 p(8,20)
  +1 p(9,20) +40 all_up_(site_0) +28 all_up_(site_1) +28 all_up_(site_1) +28 all_up_(site_1) +21 all_up_(site_2)
  +21 all_up_(site_2) +21 all_up_(site_2) +21 all_up_(site_3) +21 all_up_(site_3) +21 all_up_(site_3)
  >= +603
 Demand(21): +1 p(0,21) +1 p(1,21) +1 p(2,21) +1 p(3,21) +1 p(4,21) +1 p(5,21) +1 p(6,21) +1 p(7,21) +1 p(8,21)
  +1 p(9,21) +40 all_up_(site_0) +28 all_up_(site_1) +28 all_up_(site_1) +28 all_up_(site_1) +21 all_up_(site_2)
  +21 all_up_(site_2) +21 all_up_(site_2) +21 all_up_(site_3) +21 all_up_(site_3) +21 all_up_(site_3)
  >= +489
 Demand(22): +1 p(0,22) +1 p(1,22) +1 p(2,22) +1 p(3,22) +1 p(4,22) +1 p(5,22) +1 p(6,22) +1 p(7,22) +1 p(8,22)
  +1 p(9,22) +40 all_up_(site_0) +28 all_up_(site_1) +28 all_up_(site_1) +28 all_up_(site_1) +21 all_up_(site_2)
  +21 all_up_(site_2) +21 all_up_(site_2) +21 all_up_(site_3) +21 all_up_(site_3) +21 all_up_(site_3)
  >= +392
 Demand(23): +1 p(0,23) +1 p(1,23) +1 p(2,23) +1 p(3,23) +1 p(4,23) +1 p(5,23) +1 p(6,23) +1 p(7,23) +1 p(8,23)
  +1 p(9,23) +40 all_up_(site_0) +28 all_up_(site_1) +28 all_up_(site_1) +28 all_up_(site_1) +21 all_up_(site_2)
  +21 all_up_(site_2) +21 all_up_(site_2) +21 all_up_(site_3) +21 all_up_(site_3) +21 all_up_(site_3)
  >= +270
 PowerLimit(0,0): +1 p(0,0) -105 all_up_(site_0) <= +0
 PowerLimit(0,1): +1 p(0,1) -105 all_up_(site_0) <= +0
 PowerLimit(0,2): +1 p(0,2) -105 all_up_(site_0) <= +0
 PowerLimit(0,3): +1 p(0,3) -105 all_up_(site_0) <= +0
 PowerLimit(0,4): +1 p(0,4) -105 all_up_(site_0) <= +0
 PowerLimit(0,5): +1 p(0,5) -105 all_up_(site_0) <= +0
 PowerLimit(0,6): +1 p(0,6) -105 all_up_(site_0) <= +0
 PowerLimit(0,7): +1 p(0,7) -105 all_up_(site_0) <= +0
 PowerLimit(0,8): +1 p(0,8) -105 all_up_(site_0) <= +0
 PowerLimit(0,9): +1 p(0,9) -105 all_up_(site_0) <= +0
 PowerLimit(0,10): +1 p(0,10) -105 all_up_(site_0) <= +0
 PowerLimit(0,11): +1 p(0,11) -105 all_up_(site_0) <= +0
 PowerLimit(0,12): +1 p(0,12) -105 all_up_(site_0) <= +0
 PowerLimit(0,13): +1 p(0,13) -105 all_up_(site_0) <= +0
 PowerLimit(0,14): +1 p(0,14) -105 all_up_(site_0) <= +0
 PowerLimit(0,15): +1 p(0,15) -105 all_up_(site_0) <= +0
 PowerLimit(0,16): +1 p(0,16) -105 all_up_(site_0) <= +0
 PowerLimit(0,17): +1 p(0,17) -105 all_up_(site_0) <= +0
 PowerLimit(0,18): +1 p(0,18) -105 all_up_(site_0) <= +0
 PowerLimit(0,19): +1 p(0,19) -105 all_up_(site_0) <= +0
 PowerLimit(0,20): +1 p(0,20) -105 all_up_(site_0) <= +0
 PowerLimit(0,21): +1 p(0,21) -105 all_up_(site_0) <= +0
 PowerLimit(0,22): +1 p(0,22) -105 all_up_(site_0) <= +0
 PowerLimit(0,23): +1 p(0,23) -105 all_up_(site_0) <= +0
 PowerLimit(1,0): +1 p(1,0) -39 all_up_(site_1) <= +0
 PowerLimit(1,1): +1 p(1,1) -39 all_up_(site_1) <= +0
 PowerLimit(1,2): +1 p(1,2) -39 all_up_(site_1) <= +0
 PowerLimit(1,3): +1 p(1,3) -39 all_up_(site_1) <= +0
 PowerLimit(1,4): +1 p(1,4) -39 all_up_(site_1) <= +0
 PowerLimit(1,5): +1 p(1,5) -39 all_up_(site_1) <= +0
 PowerLimit(1,6): +1 p(1,6) -39 all_up_(site_1) <= +0
 PowerLimit(1,7): +1 p(1,7) -39 all_up_(site_1) <= +0
 PowerLimit(1,8): +1 p(1,8) -39 all_up_(site_1) <= +0
 PowerLimit(1,9): +1 p(1,9) -39 all_up_(site_1) <= +0
 PowerLimit(1,10): +1 p(1,10) -39 all_up_(site_1) <= +0
 PowerLimit(1,11): +1 p(1,11) -39 all_up_(site_1) <= +0
 PowerLimit(1,12): +1 p(1,12) -39 all_up_(site_1) <= +0
 PowerLimit(1,13): +1 p(1,13) -39 all_up_(site_1) <= +0
 PowerLimit(1,14): +1 p(1,14) -39 all_up_(site_1) <= +0
 PowerLimit(1,15): +1 p(1,15) -39 all_up_(site_1) <= +0
 PowerLimit(1,16): +1 p(1,16) -39 all_up_(site_1) <= +0
 PowerLimit(1,17): +1 p(1,17) -39 all_up_(site_1) <= +0
 PowerLimit(1,18): +1 p(1,18) -39 all_up_(site_1) <= +0
 PowerLimit(1,19): +1 p(1,19) -39 all_up_(site_1) <= +0
 PowerLimit(1,20): +1 p(1,20) -39 all_up_(site_1) <= +0
 PowerLimit(1,21): +1 p(1,21) -39 all_up_(site_1) <= +0
 PowerLimit(1,22): +1 p(1,22) -39 all_up_(site_1) <= +0
 PowerLimit(1,23): +1 p(1,23) -39 all_up_(site_1) <= +0
 PowerLimit(2,0): +1 p(2,0) -39 all_up_(site_1) <= +0
 PowerLimit(2,1): +1 p(2,1) -39 all_up_(site_1) <= +0
 PowerLimit(2,2): +1 p(2,2) -39 all_up_(site_1) <= +0
 PowerLimit(2,3): +1 p(2,3) -39 all_up_(site_1) <= +0
 PowerLimit(2,4): +1 p(2,4) -39 all_up_(site_1) <= +0
 PowerLimit(2,5): +1 p(2,5) -39 all_up_(site_1) <= +0
 PowerLimit(2,6): +1 p(2,6) -39 all_up_(site_1) <= +0
 PowerLimit(2,7): +1 p(2,7) -39 all_up_(site_1) <= +0
 PowerLimit(2,8): +1 p(2,8) -39 all_up_(site_1) <= +0
 PowerLimit(2,9): +1 p(2,9) -39 all_up_(site_1) <= +0
 PowerLimit(2,10): +1 p(2,10) -39 all_up_(site_1) <= +0
 PowerLimit(2,11): +1 p(2,11) -39 all_up_(site_1) <= +0
 PowerLimit(2,12): +1 p(2,12) -39 all_up_(site_1) <= +0
 PowerLimit(2,13): +1 p(2,13) -39 all_up_(site_1) <= +0
 PowerLimit(2,14): +1 p(2,14) -39 all_up_(site_1) <= +0
 PowerLimit(2,15): +1 p(2,15) -39 all_up_(site_1) <= +0
 PowerLimit(2,16): +1 p(2,16) -39 all_up_(site_1) <= +0
 PowerLimit(2,17): +1 p(2,17) -39 all_up_(site_1) <= +0
 PowerLimit(2,18): +1 p(2,18) -39 all_up_(site_1) <= +0
 PowerLimit(2,19): +1 p(2,19) -39 all_up_(site_1) <= +0
 PowerLimit(2,20): +1 p(2,20) -39 all_up_(site_1) <= +0
 PowerLimit(2,21): +1 p(2,21) -39 all_up_(site_1) <= +0
 PowerLimit(2,22): +1 p(2,22) -39 all_up_(site_1) <= +0
 PowerLimit(2,23): +1 p(2,23) -39 all_up_(site_1) <= +0
 PowerLimit(3,0): +1 p(3,0) -39 all_up_(site_1) <= +0
 PowerLimit(3,1): +1 p(3,1) -39 all_up_(site_1) <= +0
 PowerLimit(3,2): +1 p(3,2) -39 all_up_(site_1) <= +0
 PowerLimit(3,3): +1 p(3,3) -39 all_up_(site_1) <= +0
 PowerLimit(3,4): +1 p(3,4) -39 all_up_(site_1) <= +0
 PowerLimit(3,5): +1 p(3,5) -39 all_up_(site_1) <= +0
 PowerLimit(3,6): +1 p(3,6) -39 all_up_(site_1) <= +0
 PowerLimit(3,7): +1 p(3,7) -39 all_up_(site_1) <= +0
 PowerLimit(3,8): +1 p(3,8) -39 all_up_(site_1) <= +0
 PowerLimit(3,9): +1 p(3,9) -39 all_up_(site_1) <= +0
 PowerLimit(3,10): +1 p(3,10) -39 all_up_(site_1) <= +0
 PowerLimit(3,11): +1 p(3,11) -39 all_up_(site_1) <= +0
 PowerLimit(3,12): +1 p(3,12) -39 all_up_(site_1) <= +0
 PowerLimit(3,13): +1 p(3,13) -39 all_up_(site_1) <= +0
 PowerLimit(3,14): +1 p(3,14) -39 all_up_(site_1) <= +0
 PowerLimit(3,15): +1 p(3,15) -39 all_up_(site_1) <= +0
 PowerLimit(3,16): +1 p(3,16) -39 all_up_(site_1) <= +0
 PowerLimit(3,17): +1 p(3,17) -39 all_up_(site_1) <= +0
 PowerLimit(3,18): +1 p(3,18) -39 all_up_(site_1) <= +0
 PowerLimit(3,19): +1 p(3,19) -39 all_up_(site_1) <= +0
 PowerLimit(3,20): +1 p(3,20) -39 all_up_(site_1) <= +0
 PowerLimit(3,21): +1 p(3,21) -39 all_up_(site_1) <= +0
 PowerLimit(3,22): +1 p(3,22) -39 all_up_(site_1) <= +0
 PowerLimit(3,23): +1 p(3,23) -39 all_up_(site_1) <= +0
 PowerLimit(4,0): +1 p(4,0) -48 all_up_(site_2) <= +0
 PowerLimit(4,1): +1 p(4,1) -48 all_up_(site_2) <= +0
 PowerLimit(4,2): +1 p(4,2) -48 all_up_(site_2) <= +0
 PowerLimit(4,3): +1 p(4,3) -48 all_up_(site_2) <= +0
 PowerLimit(4,4): +1 p(4,4) -48 all_up_(site_2) <= +0
 PowerLimit(4,5): +1 p(4,5) -48 all_up_(site_2) <= +0
 PowerLimit(4,6): +1 p(4,6) -48 all_up_(site_2) <= +0
 PowerLimit(4,7): +1 p(4,7) -48 all_up_(site_2) <= +0
 PowerLimit(4,8): +1 p(4,8) -48 all_up_(site_2) <= +0
 PowerLimit(4,9): +1 p(4,9) -48 all_up_(site_2) <= +0
 PowerLimit(4,10): +1 p(4,10) -48 all_up_(site_2) <= +0
 PowerLimit(4,11): +1 p(4,11) -48 all_up_(site_2) <= +0
 PowerLimit(4,12): +1 p(4,12) -48 all_up_(site_2) <= +0
 PowerLimit(4,13): +1 p(4,13) -48 all_up_(site_2) <= +0
 PowerLimit(4,14): +1 p(4,14) -48 all_up_(site_2) <= +0
 PowerLimit(4,15): +1 p(4,15) -48 all_up_(site_2) <= +0
 PowerLimit(4,16): +1 p(4,16) -48 all_up_(site_2) <= +0
 PowerLimit(4,17): +1 p(4,17) -48 all_up_(site_2) <= +0
 PowerLimit(4,18): +1 p(4,18) -48 all_up_(site_2) <= +0
 PowerLimit(4,19): +1 p(4,19) -48 all_up_(site_2) <= +0
 PowerLimit(4,20): +1 p(4,20) -48 all_up_(site_2) <= +0
 PowerLimit(4,21): +1 p(4,21) -48 all_up_(site_2) <= +0
 PowerLimit(4,22): +1 p(4,22) -48 all_up_(site_2) <= +0
 PowerLimit(4,23): +1 p(4,23) -48 all_up_(site_2) <= +0
 PowerLimit(5,0): +1 p(5,0) -48 all_up_(site_2) <= +0
 PowerLimit(5,1): +1 p(5,1) -48 all_up_(site_2) <= +0
 PowerLimit(5,2): +1 p(5,2) -48 all_up_(site_2) <= +0
 PowerLimit(5,3): +1 p(5,3) -48 all_up_(site_2) <= +0
 PowerLimit(5,4): +1 p(5,4) -48 all_up_(site_2) <= +0
 PowerLimit(5,5): +1 p(5,5) -48 all_up_(site_2) <= +0
 PowerLimit(5,6): +1 p(5,6) -48 all_up_(site_2) <= +0
 PowerLimit(5,7): +1 p(5,7) -48 all_up_(site_2) <= +0
 PowerLimit(5,8): +1 p(5,8) -48 all_up_(site_2) <= +0
 PowerLimit(5,9): +1 p(5,9) -48 all_up_(site_2) <= +0
 PowerLimit(5,10): +1 p(5,10) -48 all_up_(site_2) <= +0
 PowerLimit(5,11): +1 p(5,11) -48 all_up_(site_2) <= +0
 PowerLimit(5,12): +1 p(5,12) -48 all_up_(site_2) <= +0
 PowerLimit(5,13): +1 p(5,13) -48 all_up_(site_2) <= +0
 PowerLimit(5,14): +1 p(5,14) -48 all_up_(site_2) <= +0
 PowerLimit(5,15): +1 p(5,15) -48 all_up_(site_2) <= +0
 PowerLimit(5,16): +1 p(5,16) -48 all_up_(site_2) <= +0
 PowerLimit(5,17): +1 p(5,17) -48 all_up_(site_2) <= +0
 PowerLimit(5,18): +1 p(5,18) -48 all_up_(site_2) <= +0
 PowerLimit(5,19): +1 p(5,19) -48 all_up_(site_2) <= +0
 PowerLimit(5,20): +1 p(5,20) -48 all_up_(site_2) <= +0
 PowerLimit(5,21): +1 p(5,21) -48 all_up_(site_2) <= +0
 PowerLimit(5,22): +1 p(5,22) -48 all_up_(site_2) <= +0
 PowerLimit(5,23): +1 p(5,23) -48 all_up_(site_2) <= +0
 PowerLimit(6,0): +1 p(6,0) -48 all_up_(site_2) <= +0
 PowerLimit(6,1): +1 p(6,1) -48 all_up_(site_2) <= +0
 PowerLimit(6,2): +1 p(6,2) -48 all_up_(site_2) <= +0
 PowerLimit(6,3): +1 p(6,3) -48 all_up_(site_2) <= +0
 PowerLimit(6,4): +1 p(6,4) -48 all_up_(site_2) <= +0
 PowerLimit(6,5): +1 p(6,5) -48 all_up_(site_2) <= +0
 PowerLimit(6,6): +1 p(6,6) -48 all_up_(site_2) <= +0
 PowerLimit(6,7): +1 p(6,7) -48 all_up_(site_2) <= +0
 PowerLimit(6,8): +1 p(6,8) -48 all_up_(site_2) <= +0
 PowerLimit(6,9): +1 p(6,9) -48 all_up_(site_2) <= +0
 PowerLimit(6,10): +1 p(6,10) -48 all_up_(site_2) <= +0
 PowerLimit(6,11): +1 p(6,11) -48 all_up_(site_2) <= +0
 PowerLimit(6,12): +1 p(6,12) -48 all_up_(site_2) <= +0
 PowerLimit(6,13): +1 p(6,13) -48 all_up_(site_2) <= +0
 PowerLimit(6,14): +1 p(6,14) -48 all_up_(site_2) <= +0
 PowerLimit(6,15): +1 p(6,15) -48 all_up_(site_2) <= +0
 PowerLimit(6,16): +1 p(6,16) -48 all_up_(site_2) <= +0
 PowerLimit(6,17): +1 p(6,17) -48 all_up_(site_2) <= +0
 PowerLimit(6,18): +1 p(6,18) -48 all_up_(site_2) <= +0
 PowerLimit(6,19): +1 p(6,19) -48 all_up_(site_2) <= +0
 PowerLimit(6,20): +1 p(6,20) -48 all_up_(site_2) <= +0
 PowerLimit(6,21): +1 p(6,21) -48 all_up_(site_2) <= +0
 PowerLimit(6,22): +1 p(6,22) -48 all_up_(site_2) <= +0
 PowerLimit(6,23): +1 p(6,23) -48 all_up_(site_2) <= +0
 PowerLimit(7,0): +1 p(7,0) -43 all_up_(site_3) <= +0
 PowerLimit(7,1): +1 p(7,1) -43 all_up_(site_3) <= +0
 PowerLimit(7,2): +1 p(7,2) -43 all_up_(site_3) <= +0
 PowerLimit(7,3): +1 p(7,3) -43 all_up_(site_3) <= +0
 PowerLimit(7,4): +1 p(7,4) -43 all_up_(site_3) <= +0
 PowerLimit(7,5): +1 p(7,5) -43 all_up_(site_3) <= +0
 PowerLimit(7,6): +1 p(7,6) -43 all_up_(site_3) <= +0
 PowerLimit(7,7): +1 p(7,7) -43 all_up_(site_3) <= +0
 PowerLimit(7,8): +1 p(7,8) -43 all_up_(site_3) <= +0
 PowerLimit(7,9): +1 p(7,9) -43 all_up_(site_3) <= +0
 PowerLimit(7,10): +1 p(7,10) -43 all_up_(site_3) <= +0
 PowerLimit(7,11): +1 p(7,11) -43 all_up_(site_3) <= +0
 PowerLimit(7,12): +1 p(7,12) -43 all_up_(site_3) <= +0
 PowerLimit(7,13): +1 p(7,13) -43 all_up_(site_3) <= +0
 PowerLimit(7,14): +1 p(7,14) -43 all_up_(site_3) <= +0
 PowerLimit(7,15): +1 p(7,15) -43 all_up_(site_3) <= +0
 PowerLimit(7,16): +1 p(7,16) -43 all_up_(site_3) <= +0
 PowerLimit(7,17): +1 p(7,17) -43 all_up_(site_3) <= +0
 PowerLimit(7,18): +1 p(7,18) -43 all_up_(site_3) <= +0
 PowerLimit(7,19): +1 p(7,19) -43 all_up_(site_3) <= +0
 PowerLimit(7,20): +1 p(7,20) -43 all_up_(site_3) <= +0
 PowerLimit(7,21): +1 p(7,21) -43 all_up_(site_3) <= +0
 PowerLimit(7,22): +1 p(7,22) -43 all_up_(site_3) <= +0
 PowerLimit(7,23): +1 p(7,23) -43 all_up_(site_3) <= +0
 PowerLimit(8,0): +1 p(8,0) -43 all_up_(site_3) <= +0
 PowerLimit(8,1): +1 p(8,1) -43 all_up_(site_3) <= +0
 PowerLimit(8,2): +1 p(8,2) -43 all_up_(site_3) <= +0
 PowerLimit(8,3): +1 p(8,3) -43 all_up_(site_3) <= +0
 PowerLimit(8,4): +1 p(8,4) -43 all_up_(site_3) <= +0
 PowerLimit(8,5): +1 p(8,5) -43 all_up_(site_3) <= +0
 PowerLimit(8,6): +1 p(8,6) -43 all_up_(site_3) <= +0
 PowerLimit(8,7): +1 p(8,7) -43 all_up_(site_3) <= +0
 PowerLimit(8,8): +1 p(8,8) -43 all_up_(site_3) <= +0
 PowerLimit(8,9): +1 p(8,9) -43 all_up_(site_3) <= +0
 PowerLimit(8,10): +1 p(8,10) -43 all_up_(site_3) <= +0
 PowerLimit(8,11): +1 p(8,11) -43 all_up_(site_3) <= +0
 PowerLimit(8,12): +1 p(8,12) -43 all_up_(site_3) <= +0
 PowerLimit(8,13): +1 p(8,13) -43 all_up_(site_3) <= +0
 PowerLimit(8,14): +1 p(8,14) -43 all_up_(site_3) <= +0
 PowerLimit(8,15): +1 p(8,15) -43 all_up_(site_3) <= +0
 PowerLimit(8,16): +1 p(8,16) -43 all_up_(site_3) <= +0
 PowerLimit(8,17): +1 p(8,17) -43 all_up_(site_3) <= +0
 PowerLimit(8,18): +1 p(8,18) -43 all_up_(site_3) <= +0
 PowerLimit(8,19): +1 p(8,19) -43 all_up_(site_3) <= +0
 PowerLimit(8,20): +1 p(8,20) -43 all_up_(site_3) <= +0
 PowerLimit(8,21): +1 p(8,21) -43 all_up_(site_3) <= +0
 PowerLimit(8,22): +1 p(8,22) -43 all_up_(site_3) <= +0
 PowerLimit(8,23): +1 p(8,23) -43 all_up_(site_3) <= +0
 PowerLimit(9,0): +1 p(9,0) -43 all_up_(site_3) <= +0
 PowerLimit(9,1): +1 p(9,1) -43 all_up_(site_3) <= +0
 PowerLimit(9,2): +1 p(9,2) -43 all_up_(site_3) <= +0
 PowerLimit(9,3): +1 p(9,3) -43 all_up_(site_3) <= +0
 PowerLimit(9,4): +1 p(9,4) -43 all_up_(site_3) <= +0
 PowerLimit(9,5): +1 p(9,5) -43 all_up_(site_3) <= +0
 PowerLimit(9,6): +1 p(9,6) -43 all_up_(site_3) <= +0
 PowerLimit(9,7): +1 p(9,7) -43 all_up_(site_3) <= +0
 PowerLimit(9,8): +1 p(9,8) -43 all_up_(site_3) <= +0
 PowerLimit(9,9): +1 p(9,9) -43 all_up_(site_3) <= +0
 PowerLimit(9,10): +1 p(9,10) -43 all_up_(site_3) <= +0
 PowerLimit(9,11): +1 p(9,11) -43 all_up_(site_3) <= +0
 PowerLimit(9,12): +1 p(9,12) -43 all_up_(site_3) <= +0
 PowerLimit(9,13): +1 p(9,13) -43 all_up_(site_3) <= +0
 PowerLimit(9,14): +1 p(9,14) -43 all_up_(site_3) <= +0
 PowerLimit(9,15): +1 p(9,15) -43 all_up_(site_3) <= +0
 PowerLimit(9,16): +1 p(9,16) -43 all_up_(site_3) <= +0
 PowerLimit(9,17): +1 p(9,17) -43 all_up_(site_3) <= +0
 PowerLimit(9,18): +1 p(9,18) -43 all_up_(site_3) <= +0
 PowerLimit(9,19): +1 p(9,19) -43 all_up_(site_3) <= +0
 PowerLimit(9,20): +1 p(9,20) -43 all_up_(site_3) <= +0
 PowerLimit(9,21): +1 p(9,21) -43 all_up_(site_3) <= +0
 PowerLimit(9,22): +1 p(9,22) -43 all_up_(site_3) <= +0
 PowerLimit(9,23): +1 p(9,23) -43 all_up_(site_3) <= +0
 Convexity(0): +1 all_up_(site_0) = +1
 Convexity(1): +1 all_up_(site_1) = +1
 Convexity(2): +1 all_up_(site_2) = +1
 Convexity(3): +1 all_up_(site_3) = +1
Bounds
 0 <= p(0,4) <= 105
 0 <= p(0,5) <= 105
 0 <= p(0,6) <= 105
 0 <= p(0,7) <= 105
 0 <= p(0,8) <= 105
 0 <= p(0,9) <= 105
 0 <= p(0,10) <= 105
 0 <= p(0,11) <= 105
 0 <= p(0,12) <= 105
 0 <= p(0,13) <= 105
 0 <= p(0,14) <= 105
 0 <= p(0,15) <= 105
 0 <= p(0,16) <= 105
 0 <= p(0,17) <= 105
 0 <= p(0,18) <= 105
 0 <= p(0,19) <= 105
 0 <= p(0,20) <= 105
 0 <= p(0,21) <= 105
 0 <= p(0,22) <= 105
 0 <= p(0,23) <= 105
 0 <= p(1,0) <= 39
 0 <= p(1,1) <= 39
 0 <= p(1,2) <= 39
 0 <= p(1,3) <= 39
 0 <= p(1,4) <= 39
 0 <= p(1,5) <= 39
 0 <= p(1,6) <= 39
 0 <= p(1,7) <= 39
 0 <= p(1,8) <= 39
 0 <= p(1,9) <= 39
 0 <= p(1,10) <= 39
 0 <= p(1,11) <= 39
 0 <= p(1,12) <= 39
 0 <= p(1,13) <= 39
 0 <= p(1,14) <= 39
 0 <= p(1,15) <= 39
 0 <= p(1,16) <= 39
 0 <= p(1,17) <= 39
 0 <= p(1,18) <= 39
 0 <= p(1,19) <= 39
 0 <= p(1,20) <= 39
 0 <= p(1,21) <= 39
 0 <= p(1,22) <= 39
 0 <= p(1,23) <= 39
 0 <= p(2,0) <= 39
 0 <= p(2,1) <= 39
 0 <= p(2,2) <= 39
 0 <= p(2,3) <= 39
 0 <= p(2,4) <= 39
 0 <= p(2,5) <= 39
 0 <= p(2,6) <= 39
 0 <= p(2,7) <= 39
 0 <= p(2,8) <= 39
 0 <= p(2,9) <= 39
 0 <= p(2,10) <= 39
 0 <= p(2,11) <= 39
 0 <= p(2,12) <= 39
 0 <= p(2,13) <= 39
 0 <= p(2,14) <= 39
 0 <= p(2,15) <= 39
 0 <= p(2,16) <= 39
 0 <= p(2,17) <= 39
 0 <= p(2,18) <= 39
 0 <= p(2,19) <= 39
 0 <= p(2,20) <= 39
 0 <= p(2,21) <= 39
 0 <= p(2,22) <= 39
 0 <= p(2,23) <= 39
 0 <= p(3,0) <= 39
 0 <= p(3,1) <= 39
 0 <= p(3,2) <= 39
 0 <= p(3,3) <= 39
 0 <= p(3,4) <= 39
 0 <= p(3,5) <= 39
 0 <= p(3,6) <= 39
 0 <= p(3,7) <= 39
 0 <= p(3,8) <= 39
 0 <= p(3,9) <= 39
 0 <= p(3,10) <= 39
 0 <= p(3,11) <= 39
 0 <= p(3,12) <= 39
 0 <= p(3,13) <= 39
 0 <= p(3,14) <= 39
 0 <= p(3,15) <= 39
 0 <= p(3,16) <= 39
 0 <= p(3,17) <= 39
 0 <= p(3,18) <= 39
 0 <= p(3,19) <= 39
 0 <= p(3,20) <= 39
 0 <= p(3,21) <= 39
 0 <= p(3,22) <= 39
 0 <= p(3,23) <= 39
 0 <= p(4,0) <= 48
 0 <= p(4,1) <= 48
 0 <= p(4,2) <= 48
 0 <= p(4,3) <= 48
 0 <= p(4,4) <= 48
 0 <= p(4,5) <= 48
 0 <= p(4,6) <= 48
 0 <= p(4,7) <= 48
 0 <= p(4,8) <= 48
 0 <= p(4,9) <= 48
 0 <= p(4,10) <= 48
 0 <= p(4,11) <= 48
 0 <= p(4,12) <= 48
 0 <= p(4,13) <= 48
 0 <= p(4,14) <= 48
 0 <= p(4,15) <= 48
 0 <= p(4,16) <= 48
 0 <= p(4,17) <= 48
 0 <= p(4,18) <= 48
 0 <= p(4,19) <= 48
 0 <= p(4,20) <= 48
 0 <= p(4,21) <= 48
 0 <= p(4,22) <= 48
 0 <= p(4,23) <= 48
 0 <= p(5,0) <= 48
 0 <= p(5,1) <= 48
 0 <= p(5,2) <= 48
 0 <= p(5,3) <= 48
 0 <= p(5,4) <= 48
 0 <= p(5,5) <= 48
 0 <= p(5,6) <= 48
 0 <= p(5,7) <= 48
 0 <= p(5,8) <= 48
 0 <= p(5,9) <= 48
 0 <= p(5,10) <= 48
 0 <= p(5,11) <= 48
 0 <= p(5,12) <= 48
 0 <= p(5,13) <= 48
 0 <= p(5,14) <= 48
 0 <= p(5,15) <= 48
 0 <= p(5,16) <= 48
 0 <= p(5,17) <= 48
 0 <= p(5,18) <= 48
 0 <= p(5,19) <= 48
 0 <= p(5,20) <= 48
 0 <= p(5,21) <= 48
 0 <= p(5,22) <= 48
 0 <= p(5,23) <= 48
 0 <= p(6,0) <= 48
 0 <= p(6,1) <= 48
 0 <= p(6,2) <= 48
 0 <= p(6,3) <= 48
 0 <= p(6,4) <= 48
 0 <= p(6,5) <= 48
 0 <= p(6,6) <= 48
 0 <= p(6,7) <= 48
 0 <= p(6,8) <= 48
 0 <= p(6,9) <= 48
 0 <= p(6,10) <= 48
 0 <= p(6,11) <= 48
 0 <= p(6,12) <= 48
 0 <= p(6,13) <= 48
 0 <= p(6,14) <= 48
 0 <= p(6,15) <= 48
 0 <= p(6,16) <= 48
 0 <= p(6,17) <= 48
 0 <= p(6,18) <= 48
 0 <= p(6,19) <= 48
 0 <= p(6,20) <= 48
 0 <= p(6,21) <= 48
 0 <= p(6,22) <= 48
 0 <= p(6,23) <= 48
 0 <= p(7,0) <= 43
 0 <= p(7,1) <= 43
 0 <= p(7,2) <= 43
 0 <= p(7,3) <= 43
 0 <= p(7,4) <= 43
 0 <= p(7,5) <= 43
 0 <= p(7,6) <= 43
 0 <= p(7,7) <= 43
 0 <= p(7,8) <= 43
 0 <= p(7,9) <= 43
 0 <= p(7,10) <= 43
 0 <= p(7,11) <= 43
 0 <= p(7,12) <= 43
 0 <= p(7,13) <= 43
 0 <= p(7,14) <= 43
 0 <= p(7,15) <= 43
 0 <= p(7,16) <= 43
 0 <= p(7,17) <= 43
 0 <= p(7,18) <= 43
 0 <= p(7,19) <= 43
 0 <= p(7,20) <= 43
 0 <= p(7,21) <= 43
 0 <= p(7,22) <= 43
 0 <= p(7,23) <= 43
 0 <= p(8,0) <= 43
 0 <= p(8,1) <= 43
 0 <= p(8,2) <= 43
 0 <= p(8,3) <= 43
 0 <= p(8,4) <= 43
 0 <= p(8,5) <= 43
 0 <= p(8,6) <= 43
 0 <= p(8,7) <= 43
 0 <= p(8,8) <= 43
 0 <= p(8,9) <= 43
 0 <= p(8,10) <= 43
 0 <= p(8,11) <= 43
 0 <= p(8,12) <= 43
 0 <= p(8,13) <= 43
 0 <= p(8,14) <= 43
 0 <= p(8,15) <= 43
 0 <= p(8,16) <= 43
 0 <= p(8,17) <= 43
 0 <= p(8,18) <= 43
 0 <= p(8,19) <= 43
 0 <= p(8,20) <= 43
 0 <= p(8,21) <= 43
 0 <= p(8,22) <= 43
 0 <= p(8,23) <= 43
 0 <= p(9,0) <= 43
 0 <= p(9,1) <= 43
 0 <= p(9,2) <= 43
 0 <= p(9,3) <= 43
 0 <= p(9,4) <= 43
 0 <= p(9,5) <= 43
 0 <= p(9,6) <= 43
 0 <= p(9,7) <= 43
 0 <= p(9,8) <= 43
 0 <= p(9,9) <= 43
 0 <= p(9,10) <= 43
 0 <= p(9,11) <= 43
 0 <= p(9,12) <= 43
 0 <= p(9,13) <= 43
 0 <= p(9,14) <= 43
 0 <= p(9,15) <= 43
 0 <= p(9,16) <= 43
 0 <= p(9,17) <= 43
 0 <= p(9,18) <= 43
 0 <= p(9,19) <= 43
 0 <= p(9,20) <= 43
 0 <= p(9,21) <= 43
 0 <= p(9,22) <= 43
 0 <= p(9,23) <= 43
 0 <= p(0,0) <= 105
 0 <= p(0,1) <= 105
 0 <= p(0,2) <= 105
 0 <= p(0,3) <= 105
Generals
 all_up_(site_0) all_up_(site_1) all_up_(site_2) all_up_(site_3)
End
